(set-logic QF_LRA)
(declare-fun X0 () Real )
(declare-fun Y0 () Real )
(declare-fun X1 () Real )
(declare-fun Y1 () Real )
(declare-fun X2 () Real )
(declare-fun Y2 () Real )
(declare-fun X3 () Real )
(declare-fun Y3 () Real )
(declare-fun X4 () Real )
(declare-fun Y4 () Real )
(declare-fun X5 () Real )
(declare-fun Y5 () Real )
(declare-fun X6 () Real )
(declare-fun Y6 () Real )
(declare-fun X7 () Real )
(declare-fun Y7 () Real )
(declare-fun X8 () Real )
(declare-fun Y8 () Real )
(declare-fun X9 () Real )
(declare-fun Y9 () Real )
(declare-fun X10 () Real )
(declare-fun Y10 () Real )
(declare-fun X11 () Real )
(declare-fun Y11 () Real )
(declare-fun X12 () Real )
(declare-fun Y12 () Real )
(declare-fun X13 () Real )
(declare-fun Y13 () Real )
(declare-fun X14 () Real )
(declare-fun Y14 () Real )
(declare-fun Z () Real )
(assert ( and  
( or ( <= ( + X0 97 ) X1 )  ( <= ( + X1 14 ) X0 )  ( <= ( + Y0 90 ) Y1 )  ( <= ( + Y1 62 ) Y0 )  )
( or ( <= ( + X0 97 ) X2 )  ( <= ( + X2 68 ) X0 )  ( <= ( + Y0 90 ) Y2 )  ( <= ( + Y2 66 ) Y0 )  )
( or ( <= ( + X0 97 ) X3 )  ( <= ( + X3 42 ) X0 )  ( <= ( + Y0 90 ) Y3 )  ( <= ( + Y3 93 ) Y0 )  )
( or ( <= ( + X0 97 ) X4 )  ( <= ( + X4 6 ) X0 )  ( <= ( + Y0 90 ) Y4 )  ( <= ( + Y4 24 ) Y0 )  )
( or ( <= ( + X0 97 ) X5 )  ( <= ( + X5 41 ) X0 )  ( <= ( + Y0 90 ) Y5 )  ( <= ( + Y5 67 ) Y0 )  )
( or ( <= ( + X0 97 ) X6 )  ( <= ( + X6 63 ) X0 )  ( <= ( + Y0 90 ) Y6 )  ( <= ( + Y6 61 ) Y0 )  )
( or ( <= ( + X0 97 ) X7 )  ( <= ( + X7 49 ) X0 )  ( <= ( + Y0 90 ) Y7 )  ( <= ( + Y7 98 ) Y0 )  )
( or ( <= ( + X0 97 ) X8 )  ( <= ( + X8 42 ) X0 )  ( <= ( + Y0 90 ) Y8 )  ( <= ( + Y8 12 ) Y0 )  )
( or ( <= ( + X0 97 ) X9 )  ( <= ( + X9 50 ) X0 )  ( <= ( + Y0 90 ) Y9 )  ( <= ( + Y9 37 ) Y0 )  )
( or ( <= ( + X0 97 ) X10 )  ( <= ( + X10 83 ) X0 )  ( <= ( + Y0 90 ) Y10 )  ( <= ( + Y10 88 ) Y0 )  )
( or ( <= ( + X0 97 ) X11 )  ( <= ( + X11 15 ) X0 )  ( <= ( + Y0 90 ) Y11 )  ( <= ( + Y11 59 ) Y0 )  )
( or ( <= ( + X0 97 ) X12 )  ( <= ( + X12 1 ) X0 )  ( <= ( + Y0 90 ) Y12 )  ( <= ( + Y12 54 ) Y0 )  )
( or ( <= ( + X0 97 ) X13 )  ( <= ( + X13 37 ) X0 )  ( <= ( + Y0 90 ) Y13 )  ( <= ( + Y13 63 ) Y0 )  )
( or ( <= ( + X0 97 ) X14 )  ( <= ( + X14 27 ) X0 )  ( <= ( + Y0 90 ) Y14 )  ( <= ( + Y14 69 ) Y0 )  )
( or ( <= ( + X1 14 ) X2 )  ( <= ( + X2 68 ) X1 )  ( <= ( + Y1 62 ) Y2 )  ( <= ( + Y2 66 ) Y1 )  )
( or ( <= ( + X1 14 ) X3 )  ( <= ( + X3 42 ) X1 )  ( <= ( + Y1 62 ) Y3 )  ( <= ( + Y3 93 ) Y1 )  )
( or ( <= ( + X1 14 ) X4 )  ( <= ( + X4 6 ) X1 )  ( <= ( + Y1 62 ) Y4 )  ( <= ( + Y4 24 ) Y1 )  )
( or ( <= ( + X1 14 ) X5 )  ( <= ( + X5 41 ) X1 )  ( <= ( + Y1 62 ) Y5 )  ( <= ( + Y5 67 ) Y1 )  )
( or ( <= ( + X1 14 ) X6 )  ( <= ( + X6 63 ) X1 )  ( <= ( + Y1 62 ) Y6 )  ( <= ( + Y6 61 ) Y1 )  )
( or ( <= ( + X1 14 ) X7 )  ( <= ( + X7 49 ) X1 )  ( <= ( + Y1 62 ) Y7 )  ( <= ( + Y7 98 ) Y1 )  )
( or ( <= ( + X1 14 ) X8 )  ( <= ( + X8 42 ) X1 )  ( <= ( + Y1 62 ) Y8 )  ( <= ( + Y8 12 ) Y1 )  )
( or ( <= ( + X1 14 ) X9 )  ( <= ( + X9 50 ) X1 )  ( <= ( + Y1 62 ) Y9 )  ( <= ( + Y9 37 ) Y1 )  )
( or ( <= ( + X1 14 ) X10 )  ( <= ( + X10 83 ) X1 )  ( <= ( + Y1 62 ) Y10 )  ( <= ( + Y10 88 ) Y1 )  )
( or ( <= ( + X1 14 ) X11 )  ( <= ( + X11 15 ) X1 )  ( <= ( + Y1 62 ) Y11 )  ( <= ( + Y11 59 ) Y1 )  )
( or ( <= ( + X1 14 ) X12 )  ( <= ( + X12 1 ) X1 )  ( <= ( + Y1 62 ) Y12 )  ( <= ( + Y12 54 ) Y1 )  )
( or ( <= ( + X1 14 ) X13 )  ( <= ( + X13 37 ) X1 )  ( <= ( + Y1 62 ) Y13 )  ( <= ( + Y13 63 ) Y1 )  )
( or ( <= ( + X1 14 ) X14 )  ( <= ( + X14 27 ) X1 )  ( <= ( + Y1 62 ) Y14 )  ( <= ( + Y14 69 ) Y1 )  )
( or ( <= ( + X2 68 ) X3 )  ( <= ( + X3 42 ) X2 )  ( <= ( + Y2 66 ) Y3 )  ( <= ( + Y3 93 ) Y2 )  )
( or ( <= ( + X2 68 ) X4 )  ( <= ( + X4 6 ) X2 )  ( <= ( + Y2 66 ) Y4 )  ( <= ( + Y4 24 ) Y2 )  )
( or ( <= ( + X2 68 ) X5 )  ( <= ( + X5 41 ) X2 )  ( <= ( + Y2 66 ) Y5 )  ( <= ( + Y5 67 ) Y2 )  )
( or ( <= ( + X2 68 ) X6 )  ( <= ( + X6 63 ) X2 )  ( <= ( + Y2 66 ) Y6 )  ( <= ( + Y6 61 ) Y2 )  )
( or ( <= ( + X2 68 ) X7 )  ( <= ( + X7 49 ) X2 )  ( <= ( + Y2 66 ) Y7 )  ( <= ( + Y7 98 ) Y2 )  )
( or ( <= ( + X2 68 ) X8 )  ( <= ( + X8 42 ) X2 )  ( <= ( + Y2 66 ) Y8 )  ( <= ( + Y8 12 ) Y2 )  )
( or ( <= ( + X2 68 ) X9 )  ( <= ( + X9 50 ) X2 )  ( <= ( + Y2 66 ) Y9 )  ( <= ( + Y9 37 ) Y2 )  )
( or ( <= ( + X2 68 ) X10 )  ( <= ( + X10 83 ) X2 )  ( <= ( + Y2 66 ) Y10 )  ( <= ( + Y10 88 ) Y2 )  )
( or ( <= ( + X2 68 ) X11 )  ( <= ( + X11 15 ) X2 )  ( <= ( + Y2 66 ) Y11 )  ( <= ( + Y11 59 ) Y2 )  )
( or ( <= ( + X2 68 ) X12 )  ( <= ( + X12 1 ) X2 )  ( <= ( + Y2 66 ) Y12 )  ( <= ( + Y12 54 ) Y2 )  )
( or ( <= ( + X2 68 ) X13 )  ( <= ( + X13 37 ) X2 )  ( <= ( + Y2 66 ) Y13 )  ( <= ( + Y13 63 ) Y2 )  )
( or ( <= ( + X2 68 ) X14 )  ( <= ( + X14 27 ) X2 )  ( <= ( + Y2 66 ) Y14 )  ( <= ( + Y14 69 ) Y2 )  )
( or ( <= ( + X3 42 ) X4 )  ( <= ( + X4 6 ) X3 )  ( <= ( + Y3 93 ) Y4 )  ( <= ( + Y4 24 ) Y3 )  )
( or ( <= ( + X3 42 ) X5 )  ( <= ( + X5 41 ) X3 )  ( <= ( + Y3 93 ) Y5 )  ( <= ( + Y5 67 ) Y3 )  )
( or ( <= ( + X3 42 ) X6 )  ( <= ( + X6 63 ) X3 )  ( <= ( + Y3 93 ) Y6 )  ( <= ( + Y6 61 ) Y3 )  )
( or ( <= ( + X3 42 ) X7 )  ( <= ( + X7 49 ) X3 )  ( <= ( + Y3 93 ) Y7 )  ( <= ( + Y7 98 ) Y3 )  )
( or ( <= ( + X3 42 ) X8 )  ( <= ( + X8 42 ) X3 )  ( <= ( + Y3 93 ) Y8 )  ( <= ( + Y8 12 ) Y3 )  )
( or ( <= ( + X3 42 ) X9 )  ( <= ( + X9 50 ) X3 )  ( <= ( + Y3 93 ) Y9 )  ( <= ( + Y9 37 ) Y3 )  )
( or ( <= ( + X3 42 ) X10 )  ( <= ( + X10 83 ) X3 )  ( <= ( + Y3 93 ) Y10 )  ( <= ( + Y10 88 ) Y3 )  )
( or ( <= ( + X3 42 ) X11 )  ( <= ( + X11 15 ) X3 )  ( <= ( + Y3 93 ) Y11 )  ( <= ( + Y11 59 ) Y3 )  )
( or ( <= ( + X3 42 ) X12 )  ( <= ( + X12 1 ) X3 )  ( <= ( + Y3 93 ) Y12 )  ( <= ( + Y12 54 ) Y3 )  )
( or ( <= ( + X3 42 ) X13 )  ( <= ( + X13 37 ) X3 )  ( <= ( + Y3 93 ) Y13 )  ( <= ( + Y13 63 ) Y3 )  )
( or ( <= ( + X3 42 ) X14 )  ( <= ( + X14 27 ) X3 )  ( <= ( + Y3 93 ) Y14 )  ( <= ( + Y14 69 ) Y3 )  )
( or ( <= ( + X4 6 ) X5 )  ( <= ( + X5 41 ) X4 )  ( <= ( + Y4 24 ) Y5 )  ( <= ( + Y5 67 ) Y4 )  )
( or ( <= ( + X4 6 ) X6 )  ( <= ( + X6 63 ) X4 )  ( <= ( + Y4 24 ) Y6 )  ( <= ( + Y6 61 ) Y4 )  )
( or ( <= ( + X4 6 ) X7 )  ( <= ( + X7 49 ) X4 )  ( <= ( + Y4 24 ) Y7 )  ( <= ( + Y7 98 ) Y4 )  )
( or ( <= ( + X4 6 ) X8 )  ( <= ( + X8 42 ) X4 )  ( <= ( + Y4 24 ) Y8 )  ( <= ( + Y8 12 ) Y4 )  )
( or ( <= ( + X4 6 ) X9 )  ( <= ( + X9 50 ) X4 )  ( <= ( + Y4 24 ) Y9 )  ( <= ( + Y9 37 ) Y4 )  )
( or ( <= ( + X4 6 ) X10 )  ( <= ( + X10 83 ) X4 )  ( <= ( + Y4 24 ) Y10 )  ( <= ( + Y10 88 ) Y4 )  )
( or ( <= ( + X4 6 ) X11 )  ( <= ( + X11 15 ) X4 )  ( <= ( + Y4 24 ) Y11 )  ( <= ( + Y11 59 ) Y4 )  )
( or ( <= ( + X4 6 ) X12 )  ( <= ( + X12 1 ) X4 )  ( <= ( + Y4 24 ) Y12 )  ( <= ( + Y12 54 ) Y4 )  )
( or ( <= ( + X4 6 ) X13 )  ( <= ( + X13 37 ) X4 )  ( <= ( + Y4 24 ) Y13 )  ( <= ( + Y13 63 ) Y4 )  )
( or ( <= ( + X4 6 ) X14 )  ( <= ( + X14 27 ) X4 )  ( <= ( + Y4 24 ) Y14 )  ( <= ( + Y14 69 ) Y4 )  )
( or ( <= ( + X5 41 ) X6 )  ( <= ( + X6 63 ) X5 )  ( <= ( + Y5 67 ) Y6 )  ( <= ( + Y6 61 ) Y5 )  )
( or ( <= ( + X5 41 ) X7 )  ( <= ( + X7 49 ) X5 )  ( <= ( + Y5 67 ) Y7 )  ( <= ( + Y7 98 ) Y5 )  )
( or ( <= ( + X5 41 ) X8 )  ( <= ( + X8 42 ) X5 )  ( <= ( + Y5 67 ) Y8 )  ( <= ( + Y8 12 ) Y5 )  )
( or ( <= ( + X5 41 ) X9 )  ( <= ( + X9 50 ) X5 )  ( <= ( + Y5 67 ) Y9 )  ( <= ( + Y9 37 ) Y5 )  )
( or ( <= ( + X5 41 ) X10 )  ( <= ( + X10 83 ) X5 )  ( <= ( + Y5 67 ) Y10 )  ( <= ( + Y10 88 ) Y5 )  )
( or ( <= ( + X5 41 ) X11 )  ( <= ( + X11 15 ) X5 )  ( <= ( + Y5 67 ) Y11 )  ( <= ( + Y11 59 ) Y5 )  )
( or ( <= ( + X5 41 ) X12 )  ( <= ( + X12 1 ) X5 )  ( <= ( + Y5 67 ) Y12 )  ( <= ( + Y12 54 ) Y5 )  )
( or ( <= ( + X5 41 ) X13 )  ( <= ( + X13 37 ) X5 )  ( <= ( + Y5 67 ) Y13 )  ( <= ( + Y13 63 ) Y5 )  )
( or ( <= ( + X5 41 ) X14 )  ( <= ( + X14 27 ) X5 )  ( <= ( + Y5 67 ) Y14 )  ( <= ( + Y14 69 ) Y5 )  )
( or ( <= ( + X6 63 ) X7 )  ( <= ( + X7 49 ) X6 )  ( <= ( + Y6 61 ) Y7 )  ( <= ( + Y7 98 ) Y6 )  )
( or ( <= ( + X6 63 ) X8 )  ( <= ( + X8 42 ) X6 )  ( <= ( + Y6 61 ) Y8 )  ( <= ( + Y8 12 ) Y6 )  )
( or ( <= ( + X6 63 ) X9 )  ( <= ( + X9 50 ) X6 )  ( <= ( + Y6 61 ) Y9 )  ( <= ( + Y9 37 ) Y6 )  )
( or ( <= ( + X6 63 ) X10 )  ( <= ( + X10 83 ) X6 )  ( <= ( + Y6 61 ) Y10 )  ( <= ( + Y10 88 ) Y6 )  )
( or ( <= ( + X6 63 ) X11 )  ( <= ( + X11 15 ) X6 )  ( <= ( + Y6 61 ) Y11 )  ( <= ( + Y11 59 ) Y6 )  )
( or ( <= ( + X6 63 ) X12 )  ( <= ( + X12 1 ) X6 )  ( <= ( + Y6 61 ) Y12 )  ( <= ( + Y12 54 ) Y6 )  )
( or ( <= ( + X6 63 ) X13 )  ( <= ( + X13 37 ) X6 )  ( <= ( + Y6 61 ) Y13 )  ( <= ( + Y13 63 ) Y6 )  )
( or ( <= ( + X6 63 ) X14 )  ( <= ( + X14 27 ) X6 )  ( <= ( + Y6 61 ) Y14 )  ( <= ( + Y14 69 ) Y6 )  )
( or ( <= ( + X7 49 ) X8 )  ( <= ( + X8 42 ) X7 )  ( <= ( + Y7 98 ) Y8 )  ( <= ( + Y8 12 ) Y7 )  )
( or ( <= ( + X7 49 ) X9 )  ( <= ( + X9 50 ) X7 )  ( <= ( + Y7 98 ) Y9 )  ( <= ( + Y9 37 ) Y7 )  )
( or ( <= ( + X7 49 ) X10 )  ( <= ( + X10 83 ) X7 )  ( <= ( + Y7 98 ) Y10 )  ( <= ( + Y10 88 ) Y7 )  )
( or ( <= ( + X7 49 ) X11 )  ( <= ( + X11 15 ) X7 )  ( <= ( + Y7 98 ) Y11 )  ( <= ( + Y11 59 ) Y7 )  )
( or ( <= ( + X7 49 ) X12 )  ( <= ( + X12 1 ) X7 )  ( <= ( + Y7 98 ) Y12 )  ( <= ( + Y12 54 ) Y7 )  )
( or ( <= ( + X7 49 ) X13 )  ( <= ( + X13 37 ) X7 )  ( <= ( + Y7 98 ) Y13 )  ( <= ( + Y13 63 ) Y7 )  )
( or ( <= ( + X7 49 ) X14 )  ( <= ( + X14 27 ) X7 )  ( <= ( + Y7 98 ) Y14 )  ( <= ( + Y14 69 ) Y7 )  )
( or ( <= ( + X8 42 ) X9 )  ( <= ( + X9 50 ) X8 )  ( <= ( + Y8 12 ) Y9 )  ( <= ( + Y9 37 ) Y8 )  )
( or ( <= ( + X8 42 ) X10 )  ( <= ( + X10 83 ) X8 )  ( <= ( + Y8 12 ) Y10 )  ( <= ( + Y10 88 ) Y8 )  )
( or ( <= ( + X8 42 ) X11 )  ( <= ( + X11 15 ) X8 )  ( <= ( + Y8 12 ) Y11 )  ( <= ( + Y11 59 ) Y8 )  )
( or ( <= ( + X8 42 ) X12 )  ( <= ( + X12 1 ) X8 )  ( <= ( + Y8 12 ) Y12 )  ( <= ( + Y12 54 ) Y8 )  )
( or ( <= ( + X8 42 ) X13 )  ( <= ( + X13 37 ) X8 )  ( <= ( + Y8 12 ) Y13 )  ( <= ( + Y13 63 ) Y8 )  )
( or ( <= ( + X8 42 ) X14 )  ( <= ( + X14 27 ) X8 )  ( <= ( + Y8 12 ) Y14 )  ( <= ( + Y14 69 ) Y8 )  )
( or ( <= ( + X9 50 ) X10 )  ( <= ( + X10 83 ) X9 )  ( <= ( + Y9 37 ) Y10 )  ( <= ( + Y10 88 ) Y9 )  )
( or ( <= ( + X9 50 ) X11 )  ( <= ( + X11 15 ) X9 )  ( <= ( + Y9 37 ) Y11 )  ( <= ( + Y11 59 ) Y9 )  )
( or ( <= ( + X9 50 ) X12 )  ( <= ( + X12 1 ) X9 )  ( <= ( + Y9 37 ) Y12 )  ( <= ( + Y12 54 ) Y9 )  )
( or ( <= ( + X9 50 ) X13 )  ( <= ( + X13 37 ) X9 )  ( <= ( + Y9 37 ) Y13 )  ( <= ( + Y13 63 ) Y9 )  )
( or ( <= ( + X9 50 ) X14 )  ( <= ( + X14 27 ) X9 )  ( <= ( + Y9 37 ) Y14 )  ( <= ( + Y14 69 ) Y9 )  )
( or ( <= ( + X10 83 ) X11 )  ( <= ( + X11 15 ) X10 )  ( <= ( + Y10 88 ) Y11 )  ( <= ( + Y11 59 ) Y10 )  )
( or ( <= ( + X10 83 ) X12 )  ( <= ( + X12 1 ) X10 )  ( <= ( + Y10 88 ) Y12 )  ( <= ( + Y12 54 ) Y10 )  )
( or ( <= ( + X10 83 ) X13 )  ( <= ( + X13 37 ) X10 )  ( <= ( + Y10 88 ) Y13 )  ( <= ( + Y13 63 ) Y10 )  )
( or ( <= ( + X10 83 ) X14 )  ( <= ( + X14 27 ) X10 )  ( <= ( + Y10 88 ) Y14 )  ( <= ( + Y14 69 ) Y10 )  )
( or ( <= ( + X11 15 ) X12 )  ( <= ( + X12 1 ) X11 )  ( <= ( + Y11 59 ) Y12 )  ( <= ( + Y12 54 ) Y11 )  )
( or ( <= ( + X11 15 ) X13 )  ( <= ( + X13 37 ) X11 )  ( <= ( + Y11 59 ) Y13 )  ( <= ( + Y13 63 ) Y11 )  )
( or ( <= ( + X11 15 ) X14 )  ( <= ( + X14 27 ) X11 )  ( <= ( + Y11 59 ) Y14 )  ( <= ( + Y14 69 ) Y11 )  )
( or ( <= ( + X12 1 ) X13 )  ( <= ( + X13 37 ) X12 )  ( <= ( + Y12 54 ) Y13 )  ( <= ( + Y13 63 ) Y12 )  )
( or ( <= ( + X12 1 ) X14 )  ( <= ( + X14 27 ) X12 )  ( <= ( + Y12 54 ) Y14 )  ( <= ( + Y14 69 ) Y12 )  )
( or ( <= ( + X13 37 ) X14 )  ( <= ( + X14 27 ) X13 )  ( <= ( + Y13 63 ) Y14 )  ( <= ( + Y14 69 ) Y13 )  )
( >= X0 0)
( <= ( + X0 97) Z)
( >= Y0 0)
( <= ( + Y0 90 ) 100)
( >= X1 0)
( <= ( + X1 14) Z)
( >= Y1 0)
( <= ( + Y1 62 ) 100)
( >= X2 0)
( <= ( + X2 68) Z)
( >= Y2 0)
( <= ( + Y2 66 ) 100)
( >= X3 0)
( <= ( + X3 42) Z)
( >= Y3 0)
( <= ( + Y3 93 ) 100)
( >= X4 0)
( <= ( + X4 6) Z)
( >= Y4 0)
( <= ( + Y4 24 ) 100)
( >= X5 0)
( <= ( + X5 41) Z)
( >= Y5 0)
( <= ( + Y5 67 ) 100)
( >= X6 0)
( <= ( + X6 63) Z)
( >= Y6 0)
( <= ( + Y6 61 ) 100)
( >= X7 0)
( <= ( + X7 49) Z)
( >= Y7 0)
( <= ( + Y7 98 ) 100)
( >= X8 0)
( <= ( + X8 42) Z)
( >= Y8 0)
( <= ( + Y8 12 ) 100)
( >= X9 0)
( <= ( + X9 50) Z)
( >= Y9 0)
( <= ( + Y9 37 ) 100)
( >= X10 0)
( <= ( + X10 83) Z)
( >= Y10 0)
( <= ( + Y10 88 ) 100)
( >= X11 0)
( <= ( + X11 15) Z)
( >= Y11 0)
( <= ( + Y11 59 ) 100)
( >= X12 0)
( <= ( + X12 1) Z)
( >= Y12 0)
( <= ( + Y12 54 ) 100)
( >= X13 0)
( <= ( + X13 37) Z)
( >= Y13 0)
( <= ( + Y13 63 ) 100)
( >= X14 0)
( <= ( + X14 27) Z)
( >= Y14 0)
( <= ( + Y14 69 ) 100)
) )
(minimize Z)
(check-sat)
